p cnf 256 906
30 48 45 0
13 -25 19 0
-46 -2 -47 0
31 -14 -41 0
-44 -42 9 0
-26 -45 8 0
-38 -28 -46 0
2 38 -44 0
-24 6 -31 0
-10 -39 17 0
18 27 13 0
38 31 6 0
7 20 -40 0
1 -25 -47 0
13 28 40 0
-36 8 14 0
14 27 -12 0
21 6 -13 0
17 -30 3 0
5 -13 -14 0
36 -14 20 0
-25 -33 -8 0
3 -20 9 0
41 19 -17 0
-23 -3 34 0
-47 4 25 0
-2 -9 -25 0
-7 31 21 0
1 -47 49 0
-50 24 30 0
41 -25 22 0
32 16 -28 0
2 9 -6 0
-49 -43 -34 0
39 37 -19 0
-50 8 18 0
48 29 -23 0
25 -13 -39 0
-16 48 -40 0
20 -11 -41 0
-27 45 -11 0
42 -18 -36 0
-40 22 -31 0
-5 2 32 0
-2 30 -28 0
-46 -1 -43 0
44 13 -40 0
6 -15 38 0
4 -21 27 0
32 4 43 0
-2 4 51 0
2 4 -51 0
-2 -4 -51 0
2 -4 51 0
6 -7 52 0
-6 -7 -52 0
6 7 -52 0
-6 7 52 0
15 -16 53 0
-15 -16 -53 0
15 16 -53 0
-15 16 53 0
22 -24 54 0
-22 -24 -54 0
22 24 -54 0
-22 24 54 0
25 -30 55 0
-25 -30 -55 0
25 30 -55 0
-25 30 55 0
33 34 56 0
-33 34 -56 0
33 -34 -56 0
-33 -34 56 0
37 41 57 0
-37 41 -57 0
37 -41 -57 0
-37 -41 57 0
-42 -46 58 0
42 -46 -58 0
-42 46 -58 0
42 46 58 0
47 49 59 0
-47 49 -59 0
47 -49 -59 0
-47 -49 59 0
51 -52 60 0
-51 -52 -60 0
51 52 -60 0
-51 52 60 0
53 -54 61 0
-53 -54 -61 0
53 54 -61 0
-53 54 61 0
55 -56 62 0
-55 -56 -62 0
55 56 -62 0
-55 56 62 0
57 -58 63 0
-57 -58 -63 0
57 58 -63 0
-57 58 63 0
59 -60 64 0
-59 -60 -64 0
59 60 -64 0
-59 60 64 0
61 -62 65 0
-61 -62 -65 0
61 62 -65 0
-61 62 65 0
-63 -64 65 0
63 -64 -65 0
-63 64 -65 0
63 64 65 0
-2 3 66 0
2 3 -66 0
-2 -3 -66 0
2 -3 66 0
4 6 67 0
-4 6 -67 0
4 -6 -67 0
-4 -6 67 0
8 9 68 0
-8 9 -68 0
8 -9 -68 0
-8 -9 68 0
-10 -11 69 0
10 -11 -69 0
-10 11 -69 0
10 11 69 0
-12 -17 70 0
12 -17 -70 0
-12 17 -70 0
12 17 70 0
22 23 71 0
-22 23 -71 0
22 -23 -71 0
-22 -23 71 0
-24 -27 72 0
24 -27 -72 0
-24 27 -72 0
24 27 72 0
29 -34 73 0
-29 -34 -73 0
29 34 -73 0
-29 34 73 0
36 -40 74 0
-36 -40 -74 0
36 40 -74 0
-36 40 74 0
44 -45 75 0
-44 -45 -75 0
44 45 -75 0
-44 45 75 0
65 -66 76 0
-65 -66 -76 0
65 66 -76 0
-65 66 76 0
67 -68 77 0
-67 -68 -77 0
67 68 -77 0
-67 68 77 0
69 -70 78 0
-69 -70 -78 0
69 70 -78 0
-69 70 78 0
71 -72 79 0
-71 -72 -79 0
71 72 -79 0
-71 72 79 0
73 -74 80 0
-73 -74 -80 0
73 74 -80 0
-73 74 80 0
75 -76 81 0
-75 -76 -81 0
75 76 -81 0
-75 76 81 0
77 -78 82 0
-77 -78 -82 0
77 78 -82 0
-77 78 82 0
79 -80 83 0
-79 -80 -83 0
79 80 -83 0
-79 80 83 0
-81 -82 83 0
81 -82 -83 0
-81 82 -83 0
81 82 83 0
-1 -3 84 0
1 -3 -84 0
-1 3 -84 0
1 3 84 0
5 6 85 0
-5 6 -85 0
5 -6 -85 0
-5 -6 85 0
-7 8 86 0
7 8 -86 0
-7 -8 -86 0
7 -8 86 0
-11 12 87 0
11 12 -87 0
-11 -12 -87 0
11 -12 87 0
-14 15 88 0
14 15 -88 0
-14 -15 -88 0
14 -15 88 0
-17 18 89 0
17 18 -89 0
-17 -18 -89 0
17 -18 89 0
20 22 90 0
-20 22 -90 0
20 -22 -90 0
-20 -22 90 0
-23 27 91 0
23 27 -91 0
-23 -27 -91 0
23 -27 91 0
28 29 92 0
-28 29 -92 0
28 -29 -92 0
-28 -29 92 0
30 31 93 0
-30 31 -93 0
30 -31 -93 0
-30 -31 93 0
-32 33 94 0
32 33 -94 0
-32 -33 -94 0
32 -33 94 0
37 -38 95 0
-37 -38 -95 0
37 38 -95 0
-37 38 95 0
-43 -44 96 0
43 -44 -96 0
-43 44 -96 0
43 44 96 0
45 -47 97 0
-45 -47 -97 0
45 47 -97 0
-45 47 97 0
49 -50 98 0
-49 -50 -98 0
49 50 -98 0
-49 50 98 0
84 -85 99 0
-84 -85 -99 0
84 85 -99 0
-84 85 99 0
86 -87 100 0
-86 -87 -100 0
86 87 -100 0
-86 87 100 0
88 -89 101 0
-88 -89 -101 0
88 89 -101 0
-88 89 101 0
90 -91 102 0
-90 -91 -102 0
90 91 -102 0
-90 91 102 0
92 -93 103 0
-92 -93 -103 0
92 93 -103 0
-92 93 103 0
94 -95 104 0
-94 -95 -104 0
94 95 -104 0
-94 95 104 0
96 -97 105 0
-96 -97 -105 0
96 97 -105 0
-96 97 105 0
98 -99 106 0
-98 -99 -106 0
98 99 -106 0
-98 99 106 0
100 -101 107 0
-100 -101 -107 0
100 101 -107 0
-100 101 107 0
102 -103 108 0
-102 -103 -108 0
102 103 -108 0
-102 103 108 0
104 -105 109 0
-104 -105 -109 0
104 105 -109 0
-104 105 109 0
106 -107 110 0
-106 -107 -110 0
106 107 -110 0
-106 107 110 0
108 -109 111 0
-108 -109 -111 0
108 109 -111 0
-108 109 111 0
110 111 0
-110 -111 0
-3 -5 112 0
3 -5 -112 0
-3 5 -112 0
3 5 112 0
-6 -7 113 0
6 -7 -113 0
-6 7 -113 0
6 7 113 0
8 9 114 0
-8 9 -114 0
8 -9 -114 0
-8 -9 114 0
-10 13 115 0
10 13 -115 0
-10 -13 -115 0
10 -13 115 0
-16 -17 116 0
16 -17 -116 0
-16 17 -116 0
16 17 116 0
-18 -19 117 0
18 -19 -117 0
-18 19 -117 0
18 19 117 0
20 23 118 0
-20 23 -118 0
20 -23 -118 0
-20 -23 118 0
24 -26 119 0
-24 -26 -119 0
24 26 -119 0
-24 26 119 0
28 -29 120 0
-28 -29 -120 0
28 29 -120 0
-28 29 120 0
31 -36 121 0
-31 -36 -121 0
31 36 -121 0
-31 36 121 0
-38 -39 122 0
38 -39 -122 0
-38 39 -122 0
38 39 122 0
40 -42 123 0
-40 -42 -123 0
40 42 -123 0
-40 42 123 0
-43 -45 124 0
43 -45 -124 0
-43 45 -124 0
43 45 124 0
111 -112 125 0
-111 -112 -125 0
111 112 -125 0
-111 112 125 0
113 -114 126 0
-113 -114 -126 0
113 114 -126 0
-113 114 126 0
115 -116 127 0
-115 -116 -127 0
115 116 -127 0
-115 116 127 0
117 -118 128 0
-117 -118 -128 0
117 118 -128 0
-117 118 128 0
119 -120 129 0
-119 -120 -129 0
119 120 -129 0
-119 120 129 0
121 -122 130 0
-121 -122 -130 0
121 122 -130 0
-121 122 130 0
123 -124 131 0
-123 -124 -131 0
123 124 -131 0
-123 124 131 0
125 -126 132 0
-125 -126 -132 0
125 126 -132 0
-125 126 132 0
127 -128 133 0
-127 -128 -133 0
127 128 -133 0
-127 128 133 0
129 -130 134 0
-129 -130 -134 0
129 130 -134 0
-129 130 134 0
131 -132 135 0
-131 -132 -135 0
131 132 -135 0
-131 132 135 0
133 -134 136 0
-133 -134 -136 0
133 134 -136 0
-133 134 136 0
135 136 0
-135 -136 0
1 6 137 0
-1 6 -137 0
1 -6 -137 0
-1 -6 137 0
8 -10 138 0
-8 -10 -138 0
8 10 -138 0
-8 10 138 0
-11 -12 139 0
11 -12 -139 0
-11 12 -139 0
11 12 139 0
-14 -16 140 0
14 -16 -140 0
-14 16 -140 0
14 16 140 0
20 -24 141 0
-20 -24 -141 0
20 24 -141 0
-20 24 141 0
-27 30 142 0
27 30 -142 0
-27 -30 -142 0
27 -30 142 0
-31 32 143 0
31 32 -143 0
-31 -32 -143 0
31 -32 143 0
-36 40 144 0
36 40 -144 0
-36 -40 -144 0
36 -40 144 0
-43 -45 145 0
43 -45 -145 0
-43 45 -145 0
43 45 145 0
136 -137 146 0
-136 -137 -146 0
136 137 -146 0
-136 137 146 0
138 -139 147 0
-138 -139 -147 0
138 139 -147 0
-138 139 147 0
140 -141 148 0
-140 -141 -148 0
140 141 -148 0
-140 141 148 0
142 -143 149 0
-142 -143 -149 0
142 143 -149 0
-142 143 149 0
144 -145 150 0
-144 -145 -150 0
144 145 -150 0
-144 145 150 0
146 -147 151 0
-146 -147 -151 0
146 147 -151 0
-146 147 151 0
148 -149 152 0
-148 -149 -152 0
148 149 -152 0
-148 149 152 0
-150 -151 152 0
150 -151 -152 0
-150 151 -152 0
150 151 152 0
-2 5 153 0
2 5 -153 0
-2 -5 -153 0
2 -5 153 0
6 -8 154 0
-6 -8 -154 0
6 8 -154 0
-6 8 154 0
-9 10 155 0
9 10 -155 0
-9 -10 -155 0
9 -10 155 0
-13 -14 156 0
13 -14 -156 0
-13 14 -156 0
13 14 156 0
17 18 157 0
-17 18 -157 0
17 -18 -157 0
-17 -18 157 0
22 -24 158 0
-22 -24 -158 0
22 24 -158 0
-22 24 158 0
28 29 159 0
-28 29 -159 0
28 -29 -159 0
-28 -29 159 0
34 -35 160 0
-34 -35 -160 0
34 35 -160 0
-34 35 160 0
-40 42 161 0
40 42 -161 0
-40 -42 -161 0
40 -42 161 0
43 -47 162 0
-43 -47 -162 0
43 47 -162 0
-43 47 162 0
152 -153 163 0
-152 -153 -163 0
152 153 -163 0
-152 153 163 0
154 -155 164 0
-154 -155 -164 0
154 155 -164 0
-154 155 164 0
156 -157 165 0
-156 -157 -165 0
156 157 -165 0
-156 157 165 0
158 -159 166 0
-158 -159 -166 0
158 159 -166 0
-158 159 166 0
160 -161 167 0
-160 -161 -167 0
160 161 -167 0
-160 161 167 0
162 -163 168 0
-162 -163 -168 0
162 163 -168 0
-162 163 168 0
164 -165 169 0
-164 -165 -169 0
164 165 -169 0
-164 165 169 0
166 -167 170 0
-166 -167 -170 0
166 167 -170 0
-166 167 170 0
-168 -169 170 0
168 -169 -170 0
-168 169 -170 0
168 169 170 0
2 3 171 0
-2 3 -171 0
2 -3 -171 0
-2 -3 171 0
9 -10 172 0
-9 -10 -172 0
9 10 -172 0
-9 10 172 0
-11 -14 173 0
11 -14 -173 0
-11 14 -173 0
11 14 173 0
16 -19 174 0
-16 -19 -174 0
16 19 -174 0
-16 19 174 0
22 -24 175 0
-22 -24 -175 0
22 24 -175 0
-22 24 175 0
26 30 176 0
-26 30 -176 0
26 -30 -176 0
-26 -30 176 0
-32 -33 177 0
32 -33 -177 0
-32 33 -177 0
32 33 177 0
34 -38 178 0
-34 -38 -178 0
34 38 -178 0
-34 38 178 0
39 40 179 0
-39 40 -179 0
39 -40 -179 0
-39 -40 179 0
-43 44 180 0
43 44 -180 0
-43 -44 -180 0
43 -44 180 0
47 -50 181 0
-47 -50 -181 0
47 50 -181 0
-47 50 181 0
171 -172 182 0
-171 -172 -182 0
171 172 -182 0
-171 172 182 0
173 -174 183 0
-173 -174 -183 0
173 174 -183 0
-173 174 183 0
175 -176 184 0
-175 -176 -184 0
175 176 -184 0
-175 176 184 0
177 -178 185 0
-177 -178 -185 0
177 178 -185 0
-177 178 185 0
179 -180 186 0
-179 -180 -186 0
179 180 -186 0
-179 180 186 0
181 -182 187 0
-181 -182 -187 0
181 182 -187 0
-181 182 187 0
183 -184 188 0
-183 -184 -188 0
183 184 -188 0
-183 184 188 0
185 -186 189 0
-185 -186 -189 0
185 186 -189 0
-185 186 189 0
-187 -188 189 0
187 -188 -189 0
-187 188 -189 0
187 188 189 0
2 4 190 0
-2 4 -190 0
2 -4 -190 0
-2 -4 190 0
-5 -6 191 0
5 -6 -191 0
-5 6 -191 0
5 6 191 0
7 -8 192 0
-7 -8 -192 0
7 8 -192 0
-7 8 192 0
10 -12 193 0
-10 -12 -193 0
10 12 -193 0
-10 12 193 0
-13 -14 194 0
13 -14 -194 0
-13 14 -194 0
13 14 194 0
-18 21 195 0
18 21 -195 0
-18 -21 -195 0
18 -21 195 0
-23 -28 196 0
23 -28 -196 0
-23 28 -196 0
23 28 196 0
30 34 197 0
-30 34 -197 0
30 -34 -197 0
-30 -34 197 0
35 36 198 0
-35 36 -198 0
35 -36 -198 0
-35 -36 198 0
-37 39 199 0
37 39 -199 0
-37 -39 -199 0
37 -39 199 0
40 -41 200 0
-40 -41 -200 0
40 41 -200 0
-40 41 200 0
-42 43 201 0
42 43 -201 0
-42 -43 -201 0
42 -43 201 0
-46 47 202 0
46 47 -202 0
-46 -47 -202 0
46 -47 202 0
49 -50 203 0
-49 -50 -203 0
49 50 -203 0
-49 50 203 0
190 -191 204 0
-190 -191 -204 0
190 191 -204 0
-190 191 204 0
192 -193 205 0
-192 -193 -205 0
192 193 -205 0
-192 193 205 0
194 -195 206 0
-194 -195 -206 0
194 195 -206 0
-194 195 206 0
196 -197 207 0
-196 -197 -207 0
196 197 -207 0
-196 197 207 0
198 -199 208 0
-198 -199 -208 0
198 199 -208 0
-198 199 208 0
200 -201 209 0
-200 -201 -209 0
200 201 -209 0
-200 201 209 0
202 -203 210 0
-202 -203 -210 0
202 203 -210 0
-202 203 210 0
204 -205 211 0
-204 -205 -211 0
204 205 -211 0
-204 205 211 0
206 -207 212 0
-206 -207 -212 0
206 207 -212 0
-206 207 212 0
208 -209 213 0
-208 -209 -213 0
208 209 -213 0
-208 209 213 0
210 -211 214 0
-210 -211 -214 0
210 211 -214 0
-210 211 214 0
212 -213 215 0
-212 -213 -215 0
212 213 -215 0
-212 213 215 0
214 215 0
-214 -215 0
-3 -6 216 0
3 -6 -216 0
-3 6 -216 0
3 6 216 0
9 -14 217 0
-9 -14 -217 0
9 14 -217 0
-9 14 217 0
18 -19 218 0
-18 -19 -218 0
18 19 -218 0
-18 19 218 0
-20 -21 219 0
20 -21 -219 0
-20 21 -219 0
20 21 219 0
25 29 220 0
-25 29 -220 0
25 -29 -220 0
-25 -29 220 0
-30 32 221 0
30 32 -221 0
-30 -32 -221 0
30 -32 221 0
37 39 222 0
-37 39 -222 0
37 -39 -222 0
-37 -39 222 0
41 43 223 0
-41 43 -223 0
41 -43 -223 0
-41 -43 223 0
46 -47 224 0
-46 -47 -224 0
46 47 -224 0
-46 47 224 0
216 -217 225 0
-216 -217 -225 0
216 217 -225 0
-216 217 225 0
218 -219 226 0
-218 -219 -226 0
218 219 -226 0
-218 219 226 0
220 -221 227 0
-220 -221 -227 0
220 221 -227 0
-220 221 227 0
222 -223 228 0
-222 -223 -228 0
222 223 -228 0
-222 223 228 0
224 -225 229 0
-224 -225 -229 0
224 225 -229 0
-224 225 229 0
226 -227 230 0
-226 -227 -230 0
226 227 -230 0
-226 227 230 0
-228 -229 230 0
228 -229 -230 0
-228 229 -230 0
228 229 230 0
2 -5 231 0
-2 -5 -231 0
2 5 -231 0
-2 5 231 0
6 -7 232 0
-6 -7 -232 0
6 7 -232 0
-6 7 232 0
8 9 233 0
-8 9 -233 0
8 -9 -233 0
-8 -9 233 0
-12 13 234 0
12 13 -234 0
-12 -13 -234 0
12 -13 234 0
-16 17 235 0
16 17 -235 0
-16 -17 -235 0
16 -17 235 0
19 -21 236 0
-19 -21 -236 0
19 21 -236 0
-19 21 236 0
22 27 237 0
-22 27 -237 0
22 -27 -237 0
-22 -27 237 0
28 29 238 0
-28 29 -238 0
28 -29 -238 0
-28 -29 238 0
-30 -31 239 0
30 -31 -239 0
-30 31 -239 0
30 31 239 0
-33 34 240 0
33 34 -240 0
-33 -34 -240 0
33 -34 240 0
-35 36 241 0
35 36 -241 0
-35 -36 -241 0
35 -36 241 0
-37 43 242 0
37 43 -242 0
-37 -43 -242 0
37 -43 242 0
44 -45 243 0
-44 -45 -243 0
44 45 -243 0
-44 45 243 0
-46 -50 244 0
46 -50 -244 0
-46 50 -244 0
46 50 244 0
231 -232 245 0
-231 -232 -245 0
231 232 -245 0
-231 232 245 0
233 -234 246 0
-233 -234 -246 0
233 234 -246 0
-233 234 246 0
235 -236 247 0
-235 -236 -247 0
235 236 -247 0
-235 236 247 0
237 -238 248 0
-237 -238 -248 0
237 238 -248 0
-237 238 248 0
239 -240 249 0
-239 -240 -249 0
239 240 -249 0
-239 240 249 0
241 -242 250 0
-241 -242 -250 0
241 242 -250 0
-241 242 250 0
243 -244 251 0
-243 -244 -251 0
243 244 -251 0
-243 244 251 0
245 -246 252 0
-245 -246 -252 0
245 246 -252 0
-245 246 252 0
247 -248 253 0
-247 -248 -253 0
247 248 -253 0
-247 248 253 0
249 -250 254 0
-249 -250 -254 0
249 250 -254 0
-249 250 254 0
251 -252 255 0
-251 -252 -255 0
251 252 -255 0
-251 252 255 0
253 -254 256 0
-253 -254 -256 0
253 254 -256 0
-253 254 256 0
255 256 0
-255 -256 0
